RT is False
Default write of storage_offers_DA.csv just to have a file (but constraint should be inactive)
Reading model...
...model read.
creating competitive generators file...
...competitive generators recorded.
Loading data...
.. day-ahead data with real-time VRE data read.
Compiling instance...
...instance created.
Creating Offer Mitigation (model will solve as dispatch if TRUE)...
Solving...

Welcome to IBM(R) ILOG(R) CPLEX(R) Interactive Optimizer 12.9.0.0
  with Simplex, Mixed Integer & Barrier Optimizers
5725-A06 5725-A29 5724-Y48 5724-Y49 5724-Y54 5724-Y55 5655-Y21
Copyright IBM Corp. 1988, 2019.  All Rights Reserved.

Type 'help' for a list of available commands.
Type 'help' followed by a command name for more
information on commands.

CPLEX> Logfile 'cplex.log' closed.
Logfile 'C:\Users\llavin\Desktop\test919\logs\tmpko9fjmta.cplex.log' open.
CPLEX> New value for parallel optimization mode: -1
CPLEX> New value for mixed integer optimality gap tolerance: 0.01
CPLEX> New value for integrality tolerance: 1e-09
CPLEX> New value for feasibility tolerance: 0.01
CPLEX> New value for deterministic time limit in ticks: 75000
CPLEX> Problem 'C:\Users\llavin\Desktop\test919\logs\tmp8088qv98.pyomo.lp' read.
Read time = 0.06 sec. (3.04 ticks)
CPLEX> Problem name         : C:\Users\llavin\Desktop\test919\logs\tmp8088qv98.pyomo.lp
Objective sense      : Minimize
Variables            :   26081  [Nneg: 1,  Box: 21616,  Free: 4464]
Objective nonzeros   :    2496
Linear constraints   :   27515  [Less: 14006,  Greater: 4416,  Equal: 9093]
  Nonzeros           :   89267
  RHS nonzeros       :   12264

Variables            : Min LB: -5000.000        Max UB: 1000000.       
Objective nonzeros   : Min   : 15.73158         Max   : 124.0997       
Linear constraints   :
  Nonzeros           : Min   : 0.8500000        Max   : 3000.000       
  RHS nonzeros       : Min   : 0.008333333      Max   : 5000.000       
CPLEX> CPXPARAM_Parallel                                -1
CPXPARAM_Simplex_Tolerances_Feasibility          0.01
CPXPARAM_DetTimeLimit                            75000
CPXPARAM_MIP_Tolerances_MIPGap                   0.01
CPXPARAM_MIP_Tolerances_Integrality              1.0000000000000001e-09
Parallel mode: opportunistic, using up to 32 threads for concurrent optimization.
Tried aggregator 1 time.
LP Presolve eliminated 21353 rows and 15463 columns.
Aggregator did 774 substitutions.
Reduced LP has 5388 rows, 9844 columns, and 31804 nonzeros.
Presolve time = 0.06 sec. (30.45 ticks)
Symmetry aggregator did 5563 additional substitutions.

Iteration log . . .
Iteration:     1   Dual objective     =             0.000000
Perturbation started.
Iteration:   101   Dual objective     =             0.000000
Iteration:   331   Dual objective     =             1.223569
Iteration:   587   Dual objective     =             1.765471
Iteration:   840   Dual objective     =             1.908696
Iteration:  1035   Dual objective     =             2.020557
Iteration:  1306   Dual objective     =             2.071427
Iteration:  1558   Dual objective     =             2.103847
Iteration:  1781   Dual objective     =             2.126864
Iteration:  1994   Dual objective     =             2.151342
Iteration:  2199   Dual objective     =             2.163889
Iteration:  2400   Dual objective     =         20052.690635
Iteration:  2669   Dual objective     =         25019.966419
Iteration:  3028   Dual objective     =         26203.228741
Removing perturbation.
Dual superbasis not built.
Using devex.

Primal simplex solved model.


Primal simplex - Optimal:  Objective =  2.6495593136e+04
Solution time =    0.16 sec.  Iterations = 1586 (1100)
Deterministic time = 80.78 ticks  (517.85 ticks/sec)

CPLEX> Solution written to file 'C:\Users\llavin\Desktop\test919\logs\tmp0z88bq5p.cplex.sol'.
CPLEX> Exporting results... 
...storage offer mitigation file created
Converting model to MPEC...
...converted
NOTE: initial MIP solve with only storage competitive to get feasible solution
Solving...

Welcome to IBM(R) ILOG(R) CPLEX(R) Interactive Optimizer 12.9.0.0
  with Simplex, Mixed Integer & Barrier Optimizers
5725-A06 5725-A29 5724-Y48 5724-Y49 5724-Y54 5724-Y55 5655-Y21
Copyright IBM Corp. 1988, 2019.  All Rights Reserved.

Type 'help' for a list of available commands.
Type 'help' followed by a command name for more
information on commands.

CPLEX> Logfile 'cplex.log' closed.
Logfile 'C:\Users\llavin\Desktop\test919\logs\tmp7u49w2v7.cplex.log' open.
CPLEX> New value for parallel optimization mode: -1
CPLEX> New value for mixed integer optimality gap tolerance: 0.01
CPLEX> New value for integrality tolerance: 1e-09
CPLEX> New value for feasibility tolerance: 0.01
CPLEX> New value for deterministic time limit in ticks: 75000
CPLEX> Problem 'C:\Users\llavin\Desktop\test919\logs\tmpdy8o0ign.pyomo.lp' read.
Read time = 0.28 sec. (14.78 ticks)
CPLEX> Problem name         : C:\Users\llavin\Desktop\test919\logs\tmpdy8o0ign.pyomo.lp
Objective sense      : Maximize
Variables            :   53805  [Nneg: 1,  Box: 22000,  Free: 4464,
                                 Binary: 27340]
Objective nonzeros   :    8973
Linear constraints   :  123205  [Less: 41346,  Greater: 59096,  Equal: 22763]
  Nonzeros           :  291794
  RHS nonzeros       :   67408

Variables            : Min LB: -5000.000        Max UB: 1000000.       
Objective nonzeros   : Min   : 0.008333333      Max   : 832.6333       
Linear constraints   :
  Nonzeros           : Min   : 0.008333333      Max   : 1000000.       
  RHS nonzeros       : Min   : 0.008333333      Max   : 1000000.       
CPLEX> CPXPARAM_Parallel                                -1
CPXPARAM_Simplex_Tolerances_Feasibility          0.01
CPXPARAM_DetTimeLimit                            75000
CPXPARAM_MIP_Tolerances_MIPGap                   0.01
CPXPARAM_MIP_Tolerances_Integrality              1.0000000000000001e-09
Tried aggregator 3 times.
MIP Presolve eliminated 88670 rows and 18967 columns.
MIP Presolve added 3382 rows and 0 columns.
MIP Presolve modified 24856 coefficients.
Aggregator did 12998 substitutions.
Reduced MIP has 24919 rows, 21281 columns, and 71105 nonzeros.
Reduced MIP has 8400 binaries, 0 generals, 0 SOSs, and 0 indicators.
Presolve time = 0.30 sec. (173.72 ticks)
Probing fixed 396 vars, tightened 2835 bounds.
Probing time = 1.27 sec. (889.82 ticks)
Tried aggregator 2 times.
MIP Presolve eliminated 901 rows and 801 columns.
MIP Presolve modified 2185 coefficients.
Aggregator did 40 substitutions.
Reduced MIP has 23978 rows, 20440 columns, and 68377 nonzeros.
Reduced MIP has 8000 binaries, 0 generals, 0 SOSs, and 0 indicators.
Presolve time = 0.09 sec. (68.90 ticks)
Probing time = 0.05 sec. (16.26 ticks)
Clique table members: 6361.
MIP emphasis: balance optimality and feasibility.
MIP search method: dynamic search.
Parallel mode: opportunistic, using up to 32 threads.
Root relaxation solution time = 0.55 sec. (578.40 ticks)

        Nodes                                         Cuts/
   Node  Left     Objective  IInf  Best Integer    Best Bound    ItCnt     Gap

      0     0     2548.0326   685                   2548.0326     6716         
      0     2     2548.0326     1                 Impl Bds: 1     6716         
Elapsed time = 8.97 sec. (5227.27 ticks, tree = 0.02 MB, solutions = 4)
*     1    16      integral     0     2152.2109     2548.0326     6797   18.39%
*   212    44      integral     0     2542.5527     2548.0326     7034    0.22%

Cover cuts applied:  3
Implied bound cuts applied:  1

Root node processing (before b&c):
  Real time             =    7.66 sec. (5185.92 ticks)
Parallel b&c, 32 threads:
  Real time             =    2.27 sec. (361.54 ticks)
  Sync time (average)   =    0.47 sec.
  Wait time (average)   =    0.00 sec.
                          ------------
Total (root+branch&cut) =    9.92 sec. (5547.45 ticks)

Solution pool: 16 solutions saved.

MIP - Integer optimal, tolerance (0.01/1e-06):  Objective =  2.5425526762e+03
Current MIP best bound =  2.5480325507e+03 (gap = 5.47987, 0.22%)
Solution time =    9.94 sec.  Iterations = 8446  Nodes = 386 (22)
Deterministic time = 5547.61 ticks  (558.22 ticks/sec)

CPLEX> Incumbent solution written to file 'C:\Users\llavin\Desktop\test919\logs\tmptnx1351r.cplex.sol'.
CPLEX> NOTE: no warmstart specified for MIP iteration, default behavior is true
NOTE: resolving with all competitive generators using storage-only solution to warmstart
Solving...

Welcome to IBM(R) ILOG(R) CPLEX(R) Interactive Optimizer 12.9.0.0
  with Simplex, Mixed Integer & Barrier Optimizers
5725-A06 5725-A29 5724-Y48 5724-Y49 5724-Y54 5724-Y55 5655-Y21
Copyright IBM Corp. 1988, 2019.  All Rights Reserved.

Type 'help' for a list of available commands.
Type 'help' followed by a command name for more
information on commands.

CPLEX> Logfile 'cplex.log' closed.
Logfile 'C:\Users\llavin\Desktop\test919\logs\tmpyo22qd5s.cplex.log' open.
CPLEX> New value for parallel optimization mode: -1
CPLEX> New value for mixed integer optimality gap tolerance: 0.01
CPLEX> New value for integrality tolerance: 1e-09
CPLEX> New value for feasibility tolerance: 0.01
CPLEX> New value for deterministic time limit in ticks: 75000
CPLEX> Problem 'C:\Users\llavin\Desktop\test919\logs\tmp4l5_5h4v.pyomo.lp' read.
Read time = 0.23 sec. (14.81 ticks)
CPLEX> MIP start file 'C:\Users\llavin\Desktop\test919\logs\tmpe2zd72v6.cplex.mst' read.
CPLEX> Problem name         : C:\Users\llavin\Desktop\test919\logs\tmp4l5_5h4v.pyomo.lp
Objective sense      : Maximize
Variables            :   54525  [Nneg: 1,  Box: 22720,  Free: 4464,
                                 Binary: 27340]
Objective nonzeros   :    9669
Linear constraints   :  123205  [Less: 41346,  Greater: 59096,  Equal: 22763]
  Nonzeros           :  291794
  RHS nonzeros       :   67408

Variables            : Min LB: -5000.000        Max UB: 1000000.       
Objective nonzeros   : Min   : 0.008333333      Max   : 786.0583       
Linear constraints   :
  Nonzeros           : Min   : 0.008333333      Max   : 1000000.       
  RHS nonzeros       : Min   : 0.008333333      Max   : 1000000.       
CPLEX> CPXPARAM_Parallel                                -1
CPXPARAM_Simplex_Tolerances_Feasibility          0.01
CPXPARAM_DetTimeLimit                            75000
CPXPARAM_MIP_Tolerances_MIPGap                   0.01
CPXPARAM_MIP_Tolerances_Integrality              1.0000000000000001e-09
Warning:  No solution found from 1 MIP starts.
Retaining values of one MIP start for possible repair.
Tried aggregator 3 times.
MIP Presolve eliminated 88670 rows and 19687 columns.
MIP Presolve added 3382 rows and 0 columns.
MIP Presolve modified 24856 coefficients.
Aggregator did 12998 substitutions.
Reduced MIP has 24919 rows, 21281 columns, and 71105 nonzeros.
Reduced MIP has 8400 binaries, 0 generals, 0 SOSs, and 0 indicators.
Presolve time = 0.31 sec. (174.08 ticks)
Probing fixed 396 vars, tightened 2835 bounds.
Probing time = 1.22 sec. (889.82 ticks)
Tried aggregator 2 times.
MIP Presolve eliminated 901 rows and 801 columns.
MIP Presolve modified 2185 coefficients.
Aggregator did 40 substitutions.
Reduced MIP has 23978 rows, 20440 columns, and 68377 nonzeros.
Reduced MIP has 8000 binaries, 0 generals, 0 SOSs, and 0 indicators.
Presolve time = 0.11 sec. (68.91 ticks)
Probing time = 0.03 sec. (16.26 ticks)
Clique table members: 6361.
MIP emphasis: balance optimality and feasibility.
MIP search method: dynamic search.
Parallel mode: opportunistic, using up to 32 threads.
Root relaxation solution time = 0.38 sec. (279.47 ticks)

        Nodes                                         Cuts/
   Node  Left     Objective  IInf  Best Integer    Best Bound    ItCnt     Gap

      0     0   122738.5929  1681                 122738.5929     6522         
      0     0   119795.3137   640                   Cuts: 689     6915         
      0     0   119228.3225   542                   Cuts: 185     7061         
      0     0   118739.8756   511                   Cuts: 102     7114         
      0     0   118660.1521   497                    Cuts: 86     7153         
      0     0   118660.1521   475                    Cuts: 72     7189         
      0     0   118660.1521   467                    Cuts: 58     7212         
      0     0   118660.1521   455                    Cuts: 59     7227         
      0     0   118660.1521   452                    Cuts: 41     7235         
      0     0   118660.1521   450                    Cuts: 36     7239         
Repair heuristic found nothing.
      0    29   104378.3789   409                    Cuts: 51     8623         
Elapsed time = 12.42 sec. (7317.64 ticks, tree = 0.62 MB, solutions = 0)
    403   121    62514.9614   385                 105328.8403    13866         
    603   465    infeasible                       105328.8403    24092         
    940   723    47513.0936   319                 105328.8403    31618         
   1561   898    35974.5725   289                 105328.8403    35570         
   2336  1513      514.8264   279                 105328.8403    42820         
   3422  1750   -32901.2847   289                 105328.8403    44444         
   4263  2709   -33780.7162   277                 105328.8403    48632         
   5007  4551   -13875.7522   265                 105328.8403    52406         
   5972  4277   -10662.3054   266                 105328.8403    51721         
*  9233+ 7600                       -39771.5282   105328.8403           364.83%
Elapsed time = 27.73 sec. (10064.38 ticks, tree = 61.17 MB, solutions = 7)
*  9374  6393      integral     0   -14557.4782   105328.8403    54451  823.54%
  11673  1428    91245.4490   350    12166.1313   105328.8403    55549  765.75%
  11675  1776        cutoff          12166.1313    91916.7180    74147  655.51%
  13129   327    52095.1462   135    12166.1313    81989.0232    88263  573.91%
  14984  1122    24060.9915    63    12166.1313    81989.0232   103484  573.91%
  17232  2302    18144.2123    83    12166.1313    74945.2916   130095  516.02%
  19602  3592    21108.2190   110    12166.1313    66465.6171   160188  446.32%
  21690  5313        cutoff          12166.1313    50229.2590   267457  312.86%
  23658  5249    15921.5705    76    12166.1313    41936.7803   404023  244.70%
  25699  5150        cutoff          12166.1313    35758.5663   425295  193.92%
Elapsed time = 84.70 sec. (25107.63 ticks, tree = 39.02 MB, solutions = 14)
  27904  4594        cutoff          12166.1313    31016.4273   518951  154.94%
  30226  4397        cutoff          12166.1313    23096.3895   536708   89.84%
  32671  3887        cutoff          12166.1313    21855.9195   602885   79.65%
  35031  2800    13071.0427    44    12166.1313    20550.0379   706864   68.91%
  37258  3393    14035.9163    62    12166.1313    18695.3345   738982   53.67%
  38824  3410    12379.8492    53    12166.1313    18564.4633   739751   52.59%
  39138  3711    13053.6045    82    12166.1313    18564.4633   754411   52.59%
  40105  3715        cutoff          12166.1313    16784.2436   754818   37.96%
  42040  4152    14920.9898    66    12166.1313    16076.1579   816262   32.14%
  44391  4102        cutoff          12166.1313    15676.8451   790138   28.86%
Elapsed time = 133.53 sec. (34651.50 ticks, tree = 28.57 MB, solutions = 14)
  46673  4107        cutoff          12166.1313    15446.8425   827352   26.97%
  48551  4277        cutoff          12166.1313    15446.8425   845173   26.97%
  49806  4229    14841.2764    57    12166.1313    15446.8425   838757   26.97%
  50751  4746    14286.1588    46    12166.1313    15446.8425   873743   26.97%
  51381  4661    13111.6764    12    12166.1313    15446.8425   868547   26.97%
  51742  4554        cutoff          12166.1313    15446.8425   859083   26.97%
  52086  4711    13108.0228     8    12166.1313    15446.8425   870003   26.97%
  52356  4706    13040.7608    12    12166.1313    15446.8425   871490   26.97%
  52586  4528        cutoff          12166.1313    15446.8425   861654   26.97%
  52825  4725        cutoff          12166.1313    15446.8425   870046   26.97%
Elapsed time = 153.73 sec. (44205.23 ticks, tree = 35.61 MB, solutions = 14)
  52994  5328    13040.7608    12    12166.1313    15446.8425   883472   26.97%
  53123  4838    12593.9132    11    12166.1313    15446.8425   875873   26.97%
  53345  4702    12999.0756    10    12166.1313    15446.8425   871411   26.97%
  53474  4841        cutoff          12166.1313    15446.8425   875880   26.97%
  53607  4825    12695.0686     9    12166.1313    15446.8425   874751   26.97%
  53819  4938    12695.0686     9    12166.1313    15446.8425   877651   26.97%
  53996  5131    13108.0228    13    12166.1313    15446.8425   880380   26.97%
  54169  5014    12673.5720    33    12166.1313    15446.8425   878270   26.97%
  54352  6111    12999.0756     8    12166.1313    15446.8425   892398   26.97%
  54542  6033        cutoff          12166.1313    15446.8425   891435   26.97%
Elapsed time = 160.98 sec. (53810.73 ticks, tree = 49.90 MB, solutions = 14)
  54704  5824        cutoff          12166.1313    15446.8425   889497   26.97%
  54913  6290        cutoff          12166.1313    15446.8425   895271   26.97%
  55147  5447    12635.5984    13    12166.1313    15446.8425   884809   26.97%
  55378  5451    13040.7608    36    12166.1313    15446.8425   884993   26.97%
  55579  5516        cutoff          12166.1313    15446.8425   885780   26.97%
  55707  6121        cutoff          12166.1313    15446.8425   892420   26.97%
  55818  5939    12593.9132    12    12166.1313    15446.8425   890602   26.97%
  55930  5921        cutoff          12166.1313    15446.8425   890289   26.97%
  56027  6252        cutoff          12166.1313    15446.8425   894343   26.97%
  56118  6546    12999.0756     8    12166.1313    15446.8425   898777   26.97%
Elapsed time = 166.89 sec. (63378.88 ticks, tree = 56.05 MB, solutions = 14)
  56197  6669        cutoff          12166.1313    15446.8425   899854   26.97%
  56289  6411    12691.4151    10    12166.1313    15446.8425   897071   26.97%
  56377  6748    12999.0756    11    12166.1313    15446.8425   900756   26.97%
  56436  6298        cutoff          12166.1313    15446.8425   895083   26.97%
  56524  6419    13040.7608     9    12166.1313    15446.8425   897319   26.97%
  56614  6758    12999.0756    10    12166.1313    15446.8425   901160   26.97%
  56693  6467        cutoff          12166.1313    15446.8425   898228   26.97%
  56754  6774        cutoff          12166.1313    15446.8425   901262   26.97%
  56792  6555        cutoff          12166.1313    15446.8425   898874   26.97%
  56834  6567    13040.7608     7    12166.1313    15446.8425   898796   26.97%
Elapsed time = 170.34 sec. (73239.19 ticks, tree = 56.32 MB, solutions = 14)
  56861  6674        cutoff          12166.1313    15446.8425   899904   26.97%

GUB cover cuts applied:  6
Clique cuts applied:  3
Cover cuts applied:  62
Implied bound cuts applied:  94
Flow cuts applied:  1483
Mixed integer rounding cuts applied:  479
Gomory fractional cuts applied:  145

Root node processing (before b&c):
  Real time             =   10.94 sec. (7290.36 ticks)
Parallel b&c, 32 threads:
  Real time             =  160.19 sec. (68422.96 ticks)
  Sync time (average)   =    2.09 sec.
  Wait time (average)   =    0.26 sec.
                          ------------
Total (root+branch&cut) =  171.13 sec. (75713.31 ticks)

Solution pool: 14 solutions saved.

MIP - Deterministic time limit exceeded, integer feasible:  Objective =  1.2166131258e+04
Current MIP best bound =  1.5446842492e+04 (gap = 3280.71, 26.97%)
Solution time =  171.16 sec.  Iterations = 908248  Nodes = 56878 (7439)
Deterministic time = 75713.47 ticks  (442.37 ticks/sec)

CPLEX> Incumbent solution written to file 'C:\Users\llavin\Desktop\test919\logs\tmpw836iwbz.cplex.sol'.
CPLEX> Exporting results... 
